NAME : KROE99B.26542.tour
COMMENT : Cost = 0_26542
COMMENT : Found by LKH [Keld Helsgaun] Sun Sep 17 16:52:41 2017
TYPE : TOUR
DIMENSION : 99
TOUR_SECTION
1
73
21
7
87
35
39
98
53
96
64
5
89
30
92
54
90
77
34
6
69
91
81
66
27
74
13
31
56
79
10
59
49
48
55
63
57
62
32
12
75
50
68
82
78
26
45
3
46
72
16
80
88
70
60
14
51
43
71
67
37
33
22
38
42
85
19
93
18
24
29
99
52
36
76
84
95
11
2
4
40
86
9
65
41
47
8
25
44
17
83
61
20
15
23
28
94
58
97
-1
EOF
